

*************************************************************

   NEOS Server Version 6.0
   Job#     : 18284379
   Password : ZNrDUpzn
   User     : 
   Solver   : milp:Gurobi:AMPL
   Start    : 2026-01-26 08:54:31
   End      : 2026-01-26 09:05:04
   Host     : prod-sub-1.neos-server.org

   Disclaimer:

   This information is provided without any express or
   implied warranty. In particular, there is no warranty
   of any kind concerning the fitness of this
   information for any particular purpose.

   Announcements:
*************************************************************
You are using the solver gurobi_ampl.
Checking ampl.mod for gurobi_options...
Checking ampl.com for gurobi_options...
Executing AMPL.
processing data.
processing commands.
Executing on prod-exec-1.neos-server.org
N = 595


"option presolve 0;" used, but "option presolve 10;" might work better.
595 variables, all binary
176715 constraints, all linear; 353430 nonzeros
	176715 inequality constraints
1 linear objective; 595 nonzeros.

Gurobi 12.0.3:   tech:threads = 4
  pre:solve = 2
  alg:iisfind = 1
Set parameter LogToConsole to value 1
  tech:outlev = 1

AMPL MP initial flat model has 595 variables (0 integer, 595 binary);
Objectives: 1 linear; 
Constraints:  176715 linear;

AMPL MP final model has 595 variables (0 integer, 595 binary);
Objectives: 1 linear; 
Constraints:  176715 linear;


Set parameter InfUnbdInfo to value 1
Gurobi Optimizer version 12.0.3 build v12.0.3rc0 (linux64 - "Rocky Linux 8.10 (Green Obsidian)")

CPU model: Intel(R) Xeon(R) CPU E5-2698 v3 @ 2.30GHz, instruction set [SSE2|AVX|AVX2]
Thread count: 32 physical cores, 64 logical processors, using up to 4 threads

Non-default parameters:
InfUnbdInfo  1
Presolve  2
Threads  4

Optimize a model with 176715 rows, 595 columns and 353430 nonzeros
Model fingerprint: 0x3d151f0a
Variable types: 0 continuous, 595 integer (0 binary)
Coefficient statistics:
  Matrix range     [1e+00, 1e+00]
  Objective range  [1e+00, 1e+00]
  Bounds range     [1e+00, 1e+00]
  RHS range        [1e+00, 2e+00]
Found heuristic solution: objective 25.0000000
Presolve removed 171371 rows and 0 columns
Presolve time: 0.15s
Presolved: 5344 rows, 595 columns, 23529 nonzeros
Variable types: 0 continuous, 595 integer (595 binary)
Performing another presolve...
Presolve removed 220 rows and 0 columns
Presolve time: 0.76s
Root relaxation presolved: 5124 rows, 595 columns, 33233 nonzeros

Warning: Markowitz tolerance tightened to 0.03125

Root relaxation: objective 5.850386e+01, 8361 iterations, 2.87 seconds (2.98 work units)

    Nodes    |    Current Node    |     Objective Bounds      |     Work
 Expl Unexpl |  Obj  Depth IntInf | Incumbent    BestBd   Gap | It/Node Time

     0     0   58.50386    0  425   25.00000   58.50386   134%     -    4s
H    0     0                      27.0000000   58.50386   117%     -    4s
     0     0   36.25000    0  171   27.00000   36.25000  34.3%     -    5s
     0     0   35.00000    0  159   27.00000   35.00000  29.6%     -    5s
     0     0   35.00000    0  150   27.00000   35.00000  29.6%     -    5s
H    0     0                      28.0000000   35.00000  25.0%     -    5s
H    0     0                      29.0000000   35.00000  20.7%     -    5s
     0     0   35.00000    0  149   29.00000   35.00000  20.7%     -    5s
     0     0   35.00000    0  147   29.00000   35.00000  20.7%     -    5s
     0     0   35.00000    0  152   29.00000   35.00000  20.7%     -    6s
H    0     0                      30.0000000   35.00000  16.7%     -    6s
     0     0   35.00000    0  149   30.00000   35.00000  16.7%     -    6s
H    0     0                      31.0000000   35.00000  12.9%     -    7s
H    0     0                      32.0000000   35.00000  9.37%     -    7s
     0     0   35.00000    0  149   32.00000   35.00000  9.37%     -    7s
     0     0   35.00000    0  144   32.00000   35.00000  9.37%     -    7s
H    0     0                      33.0000000   35.00000  6.06%     -    7s
     0     0   35.00000    0  145   33.00000   35.00000  6.06%     -    7s
     0     0   35.00000    0  145   33.00000   35.00000  6.06%     -    7s
     0     2   35.00000    0  145   33.00000   35.00000  6.06%     -    9s
    78   172   35.00000   14   68   33.00000   35.00000  6.06%   199   10s
  1474   759   34.75000   22   90   33.00000   35.00000  6.06%  87.2   15s
  1942   913   34.66667   41  423   33.00000   35.00000  6.06%  82.2   23s
  1947   917   34.25000   19  145   33.00000   35.00000  6.06%  82.0   25s
  1961   926   34.62500   36  119   33.00000   35.00000  6.06%  81.4   30s
  1972   938   35.00000   12  110   33.00000   35.00000  6.06%   101   35s
  2457  1023   34.42857   48  100   33.00000   35.00000  6.06%   108   40s
  3161   982   34.00000   26   70   33.00000   35.00000  6.06%   103   45s
  4842  1003     cutoff   38        33.00000   35.00000  6.06%  97.8   50s
  5782  1318   34.66667   35   77   33.00000   35.00000  6.06%  97.2   55s
  6500  1565     cutoff   30        33.00000   35.00000  6.06%   100   60s
  8262  2351   34.46429   35  101   33.00000   35.00000  6.06%   100   65s
 10353  3153   34.25000   35   85   33.00000   35.00000  6.06%  99.0   71s
 11284  3400   34.00000   37   55   33.00000   35.00000  6.06%   100   75s
 13163  3858   34.58824   36   84   33.00000   35.00000  6.06%  99.0   80s
 13824  4158     cutoff   26        33.00000   35.00000  6.06%  99.0   85s
 14590  4338   34.75000   17  106   33.00000   35.00000  6.06%  98.8   90s
 16313  5156   35.00000   48   85   33.00000   35.00000  6.06%  98.0   95s
 17440  5677   35.00000   29   95   33.00000   35.00000  6.06%  98.5  101s
 18936  6309   35.00000   41   56   33.00000   35.00000  6.06%  98.6  105s
 20937  6782   34.75000   43  298   33.00000   35.00000  6.06%  98.6  130s
 20939  6783   34.00000   39  423   33.00000   35.00000  6.06%  98.6  136s
 20949  6790   34.00000   41  142   33.00000   35.00000  6.06%  98.6  140s
 20958  6796   34.66667   44  128   33.00000   35.00000  6.06%  98.5  145s
 21111  6861   34.85366   41  122   33.00000   35.00000  6.06%   100  150s
 21430  6849     cutoff   40        33.00000   35.00000  6.06%   101  156s
 21926  6788   34.00000   51   85   33.00000   35.00000  6.06%   101  161s
 22422  6804   34.00000   33   80   33.00000   35.00000  6.06%   100  165s
 23268  6814   35.00000   32   86   33.00000   35.00000  6.06%   100  170s
 24717  6951   35.00000   51   80   33.00000   35.00000  6.06%   100  175s
 25856  6877   34.85714   33  112   33.00000   35.00000  6.06%   100  180s
*27380  4783              38      34.0000000   35.00000  2.94%   100  184s
 27806  4482   35.00000   45  298   34.00000   35.00000  2.94%   100  185s
 27808  4483   35.00000   42  424   34.00000   35.00000  2.94%   100  191s
 27818  4490   35.00000   44  142   34.00000   35.00000  2.94%   100  195s
 27826  4495   35.00000   43  144   34.00000   35.00000  2.94%   100  200s
 28107  4472   35.00000   45   83   34.00000   35.00000  2.94%   101  205s
 28508  4325   35.00000   41   91   34.00000   35.00000  2.94%   102  210s
 28766  4271 infeasible   71        34.00000   35.00000  2.94%   102  215s
 29219  4137   35.00000   41   99   34.00000   35.00000  2.94%   102  221s
 29396  4080   35.00000   45   73   34.00000   35.00000  2.94%   102  225s
 29663  3997   35.00000   53   90   34.00000   35.00000  2.94%   102  230s
 30665  3655 infeasible   56        34.00000   35.00000  2.94%   103  235s
 31785  3295 infeasible   53        34.00000   35.00000  2.94%   103  240s
 33213  2813   35.00000   55   59   34.00000   35.00000  2.94%   103  247s
 34235  2497 infeasible   39        34.00000   35.00000  2.94%   103  250s
 34899  2254 infeasible   53        34.00000   35.00000  2.94%   104  255s
 36033  1865   35.00000   51   84   34.00000   35.00000  2.94%   104  260s
 37738  1339 infeasible   49        34.00000   35.00000  2.94%   104  266s
 38524  1071   35.00000   55   94   34.00000   35.00000  2.94%   105  271s
 38779   963 infeasible   59        34.00000   35.00000  2.94%   105  275s
 39955   544   35.00000   62   92   34.00000   35.00000  2.94%   106  280s
 40486   396 infeasible   60        34.00000   35.00000  2.94%   106  285s
 41770    87 infeasible   58        34.00000   35.00000  2.94%   107  291s
 42579    85 infeasible   78        34.00000   35.00000  2.94%   108  295s
 44030   139   35.00000   58   87   34.00000   35.00000  2.94%   108  302s
 44525   135   35.00000   78   98   34.00000   35.00000  2.94%   109  307s
 44711   114   35.00000   79   84   34.00000   35.00000  2.94%   109  311s
 45003   116 infeasible   80        34.00000   35.00000  2.94%   110  315s
 46889   190 infeasible   60        34.00000   35.00000  2.94%   111  321s
 48084   152 infeasible   68        34.00000   35.00000  2.94%   111  326s
 48830   106   35.00000   63   75   34.00000   35.00000  2.94%   112  331s
 49558    46 infeasible   50        34.00000   35.00000  2.94%   113  335s
 50093    87   35.00000   35  105   34.00000   35.00000  2.94%   114  340s
 50306   122   35.00000   37   62   34.00000   35.00000  2.94%   114  345s
 50794   119 infeasible   38        34.00000   35.00000  2.94%   115  351s
 50840   162   35.00000   49  102   34.00000   35.00000  2.94%   115  355s
 51289   136   35.00000   50   83   34.00000   35.00000  2.94%   115  360s
 52069   127 infeasible   50        34.00000   35.00000  2.94%   116  366s
 52968   113   35.00000   55   72   34.00000   35.00000  2.94%   117  371s
 53782   100   35.00000   61   84   34.00000   35.00000  2.94%   118  377s
 54512    59 infeasible   43        34.00000   35.00000  2.94%   120  382s
 54681    27 infeasible   44        34.00000   35.00000  2.94%   120  387s
 55003    50 infeasible   38        34.00000   35.00000  2.94%   121  390s
 55672    84 infeasible   81        34.00000   35.00000  2.94%   122  396s
 56455   130   35.00000   54   89   34.00000   35.00000  2.94%   123  403s
 56839   120   35.00000   58   82   34.00000   35.00000  2.94%   124  406s
 57609   131   35.00000   76   83   34.00000   35.00000  2.94%   125  412s
 58023   142   35.00000   44   78   34.00000   35.00000  2.94%   126  415s
 58286   121   35.00000   42   82   34.00000   35.00000  2.94%   126  423s
 58695    96 infeasible   75        34.00000   35.00000  2.94%   127  426s
 59080   128   35.00000   59   94   34.00000   35.00000  2.94%   128  430s
 60030   171 infeasible   74        34.00000   35.00000  2.94%   130  437s
 60555   164 infeasible   58        34.00000   35.00000  2.94%   130  440s
 61552   151 infeasible   62        34.00000   35.00000  2.94%   131  447s
 61950   205   35.00000   60   95   34.00000   35.00000  2.94%   132  451s
 62521   240   35.00000   63   78   34.00000   35.00000  2.94%   133  457s
 62755   243 infeasible   64        34.00000   35.00000  2.94%   133  461s
 63563   211 infeasible   70        34.00000   35.00000  2.94%   134  467s
 64025   229   35.00000   36   93   34.00000   35.00000  2.94%   135  471s
 64816   186   35.00000   95   90   34.00000   35.00000  2.94%   136  478s
 65229   181   35.00000   88   80   34.00000   35.00000  2.94%   137  481s
 65652   186   35.00000   60   88   34.00000   35.00000  2.94%   137  485s
 66333   238   35.00000   68   98   34.00000   35.00000  2.94%   138  491s
 66410   229   35.00000   69  100   34.00000   35.00000  2.94%   138  506s
 67822   232   35.00000   65   85   34.00000   35.00000  2.94%   141  510s
 67834   221 infeasible   66        34.00000   35.00000  2.94%   141  519s
 68282   260 infeasible   47        34.00000   35.00000  2.94%   141  524s
 68876   249 infeasible   58        34.00000   35.00000  2.94%   142  528s
 69286   233 infeasible   66        34.00000   35.00000  2.94%   143  532s
 69400   212   35.00000   55   95   34.00000   35.00000  2.94%   143  537s
 69634   194   35.00000   56   83   34.00000   35.00000  2.94%   144  542s
 70139   196 infeasible   42        34.00000   35.00000  2.94%   145  546s
 70651   142 infeasible   48        34.00000   35.00000  2.94%   145  551s
 71173   151   35.00000   54   83   34.00000   35.00000  2.94%   146  555s
 71688   151 infeasible   55        34.00000   35.00000  2.94%   147  560s
 72684   119 infeasible   58        34.00000   35.00000  2.94%   148  568s
 73124   122 infeasible   57        34.00000   35.00000  2.94%   149  572s
 73275   132   35.00000   49   92   34.00000   35.00000  2.94%   149  576s
 73706   159   35.00000   72  100   34.00000   35.00000  2.94%   150  580s
 74617   145 infeasible   66        34.00000   35.00000  2.94%   151  588s
 75106   118   35.00000   61   87   34.00000   35.00000  2.94%   152  592s
 75510   120   35.00000   40   93   34.00000   35.00000  2.94%   152  596s
 75538   111   35.00000   41   86   34.00000   35.00000  2.94%   152  600s
 76238   122 infeasible   38        34.00000   35.00000  2.94%   153  609s
 76764    78   35.00000   55   94   34.00000   35.00000  2.94%   154  613s
 77280    92   35.00000   49  102   34.00000   35.00000  2.94%   154  617s
 77708    64 infeasible   52        34.00000   35.00000  2.94%   155  621s
 78169    32 infeasible   48        34.00000   35.00000  2.94%   156  625s
*78367    32              53      35.0000000   35.00000  0.00%   156  625s

Cutting planes:
  Gomory: 7
  Cover: 28
  Clique: 404
  Flow cover: 4
  Inf proof: 4
  Zero half: 8

Explored 78597 nodes (12287280 simplex iterations) in 625.75 seconds (868.69 work units)
Thread count was 4 (of 64 available processors)

Solution count 10: 35 34 33 ... 25

Optimal solution found (tolerance 1.00e-04)
Best objective 3.500000000000e+01, best bound 3.500000000000e+01, gap 0.0000%
Gurobi 12.0.3: optimal solution; objective 35
1.22873e+07 simplex iterations
78597 branching nodes
clique_size = 35

Vertices in clique
==================
15
23
38
67
84
102
110
130
141
168
180
188
212
238
251
270
280
291
315
332
348
373
382
396
415
432
453
462
488
494
518
533
556
570
587

NEOS Server Home

